Sr2RuO4
1.0
3.900000 0.000000 0.000000
0.000000 3.900000 0.000000
0.000000 0.000000 12.680000
Sr Ru O
4 2 8
Direct
0.500000 0.500000 0.854361
0.500000 0.500000 0.145639
0.000000 0.000000 0.838365
0.000000 0.000000 0.161635
0.000000 0.500000 0.838365
0.500000 0.000000 0.838365
0.000000 0.500000 0.161635
0.500000 0.000000 0.161635
0.000000 0.000000 0.000000
0.500000 0.500000 0.000000
0.000000 0.500000 0.000000
0.500000 0.000000 0.000000
0.000000 0.500000 0.500000
0.500000 0.000000 0.500000
