structure for 3L                        
   1.00000000000000     
     3.7544000000000000    0.0000000000000000    0.0000000000000000
     0.0000000000000000    3.7544000000000000    0.0000000000000000
     0.0000000000000000    0.0000000000000000   40.0000000000000000
   Ni   La   La   Sr   O 
     2     2     1     1     7
Selective dynamics
Direct
  0.5000000000000000  0.5000000000000000  0.3885750000000000   F   F   F
  0.5000000000000000  0.5000000000000000  0.4955750000000000   F   F   F
  0.0000000000000000  0.0000000000000000  0.3494500000000000   F   F   F
  0.0000000000000000  0.0000000000000000  0.5347000000000000   F   F   F
  0.0000000000000000  0.0000000000000000  0.4420750000000000   F   F   F
  0.0000000000000000  0.0000000000000000  0.4420750000000000   F   F   F
  0.5000000000000000  0.5000000000000000  0.3372957642122912   F   F   T
  0.0000000000000000  0.5000000000000000  0.3900039967478738   F   F   T
  0.5000000000000000  0.0000000000000000  0.3900039967478738   F   F   T
  0.5000000000000000  0.5000000000000000  0.4420750000000000   F   F   T
  0.0000000000000000  0.5000000000000000  0.4941460032521262   F   F   T
  0.5000000000000000  0.0000000000000000  0.4941460032521262   F   F   T
  0.5000000000000000  0.5000000000000000  0.5468542357877088   F   F   T
 
