structure for 3L
1.00000000000000
  3.7544000000000000    0.0000000000000000    0.0000000000000000
  0.0000000000000000    3.7544000000000000    0.0000000000000000
  0.0000000000000000    0.0000000000000000   40.0000000000000000
Ni  La  Sr  O
 2   3   1   7
Selective dynamics
Direct
 0.5000000000000000  0.5000000000000000  0.3885800000000000   F   F   F
 0.5000000000000000  0.5000000000000000  0.4955800000000000   F   F   F
 0.0000000000000000  0.0000000000000000  0.3494500000000000   F   F   F
 0.0000000000000000  0.0000000000000000  0.5347000000000000   F   F   F
 0.0000000000000000  0.0000000000000000  0.4420800000000000   F   F   F
 0.0000000000000000  0.0000000000000000  0.4420800000000000   F   F   F
 0.5000000000000000  0.5000000000000000  0.3373000000000000   F   F   T
 0.0000000000000000  0.5000000000000000  0.3900000000000000   F   F   T
 0.5000000000000000  0.0000000000000000  0.3900000000000000   F   F   T
 0.5000000000000000  0.5000000000000000  0.4420800000000000   F   F   T
 0.0000000000000000  0.5000000000000000  0.4941500000000000   F   F   T
 0.5000000000000000  0.0000000000000000  0.4941500000000000   F   F   T
 0.5000000000000000  0.5000000000000000  0.5468500000000000   F   F   T
